617,207
718,292
705,389
751,850
681,646
339,295
227,175
385,110
470,115
411,406
491,596
597,490
685,377
609,354
639,140
620,21
681,-14
681,-134
782,93
536,301
501,406
844,86
945,42
1045,142
994,305
888,438
822,600
